150
[34,35,36,39,40,41,45,49,50,51,52,56,57,58,59,61,65,70,80,82,83,84,85,86,87,88,90,93,95,96,97,105,111,112,115,116,117,118,119,120]
[1,2,3,1,1,1,1,1,1,1,1,1,1,1,1,1,2,2,1,1,1,1,2,1,1,1,1,3,1,1,1,2,1,1,1,1,1,2,1,1]
